1600 3120
1 2 2
1 41 4
2 3 1
2 42 4
3 4 1
3 43 4
4 5 1
4 44 2
5 6 2
5 45 4
6 7 4
6 46 1
7 8 4
7 47 5
8 9 4
8 48 1
9 10 3
9 49 4
10 11 1
10 50 1
11 12 3
11 51 1
12 13 1
12 52 5
13 14 5
13 53 5
14 15 3
14 54 5
15 16 2
15 55 4
16 17 4
16 56 5
17 18 3
17 57 4
18 19 1
18 58 2
19 20 5
19 59 3
20 21 3
20 60 2
21 22 2
21 61 5
22 23 3
22 62 3
23 24 4
23 63 5
24 25 3
24 64 4
25 26 4
25 65 1
26 27 2
26 66 3
27 28 3
27 67 3
28 29 3
28 68 3
29 30 3
29 69 4
30 31 5
30 70 5
31 32 1
31 71 4
32 33 4
32 72 1
33 34 1
33 73 5
34 35 2
34 74 4
35 36 1
35 75 1
36 37 4
36 76 3
37 38 1
37 77 4
38 39 2
38 78 4
39 40 4
39 79 2
40 80 2
41 42 5
41 81 5
42 43 4
42 82 1
43 44 3
43 83 3
44 45 5
44 84 1
45 46 1
45 85 1
46 47 5
46 86 3
47 48 2
47 87 1
48 49 3
48 88 1
49 50 1
49 89 2
50 51 3
50 90 2
51 52 2
51 91 3
52 53 4
52 92 5
53 54 1
53 93 3
54 55 5
54 94 4
55 56 3
55 95 1
56 57 5
56 96 1
57 58 5
57 97 3
58 59 5
58 98 2
59 60 4
59 99 2
60 61 3
60 100 5
61 62 5
61 101 4
62 63 2
62 102 2
63 64 5
63 103 5
64 65 5
64 104 5
65 66 1
65 105 1
66 67 2
66 106 5
67 68 5
67 107 4
68 69 2
68 108 3
69 70 1
69 109 2
70 71 2
70 110 5
71 72 2
71 111 2
72 73 2
72 112 5
73 74 2
73 113 1
74 75 2
74 114 5
75 76 5
75 115 5
76 77 3
76 116 3
77 78 4
77 117 2
78 79 1
78 118 2
79 80 1
79 119 3
80 120 2
81 82 3
81 121 1
82 83 1
82 122 2
83 84 2
83 123 2
84 85 1
84 124 5
85 86 3
85 125 1
86 87 4
86 126 4
87 88 5
87 127 4
88 89 3
88 128 2
89 90 5
89 129 5
90 91 3
90 130 2
91 92 1
91 131 1
92 93 2
92 132 1
93 94 4
93 133 1
94 95 1
94 134 5
95 96 5
95 135 1
96 97 5
96 136 3
97 98 1
97 137 3
98 99 4
98 138 3
99 100 1
99 139 5
100 101 4
100 140 3
101 102 3
101 141 4
102 103 3
102 142 2
103 104 1
103 143 1
104 105 4
104 144 5
105 106 3
105 145 5
106 107 4
106 146 3
107 108 1
107 147 2
108 109 2
108 148 5
109 110 2
109 149 1
110 111 3
110 150 4
111 112 3
111 151 4
112 113 2
112 152 4
113 114 4
113 153 3
114 115 1
114 154 3
115 116 3
115 155 1
116 117 3
116 156 2
117 118 2
117 157 4
118 119 4
118 158 2
119 120 3
119 159 5
120 160 1
121 122 1
121 161 3
122 123 4
122 162 3
123 124 1
123 163 4
124 125 5
124 164 5
125 126 5
125 165 3
126 127 4
126 166 5
127 128 5
127 167 1
128 129 2
128 168 5
129 130 3
129 169 2
130 131 3
130 170 4
131 132 4
131 171 3
132 133 3
132 172 2
133 134 5
133 173 2
134 135 3
134 174 2
135 136 2
135 175 5
136 137 4
136 176 1
137 138 2
137 177 2
138 139 5
138 178 5
139 140 5
139 179 5
140 141 3
140 180 4
141 142 5
141 181 5
142 143 5
142 182 4
143 144 5
143 183 5
144 145 4
144 184 1
145 146 5
145 185 4
146 147 2
146 186 5
147 148 5
147 187 5
148 149 1
148 188 1
149 150 2
149 189 1
150 151 5
150 190 4
151 152 1
151 191 1
152 153 1
152 192 1
153 154 5
153 193 4
154 155 1
154 194 2
155 156 4
155 195 4
156 157 3
156 196 4
157 158 2
157 197 5
158 159 4
158 198 2
159 160 3
159 199 3
160 200 4
161 162 3
161 201 4
162 163 1
162 202 1
163 164 1
163 203 3
164 165 4
164 204 4
165 166 4
165 205 1
166 167 2
166 206 3
167 168 1
167 207 3
168 169 5
168 208 3
169 170 2
169 209 5
170 171 1
170 210 5
171 172 2
171 211 4
172 173 3
172 212 4
173 174 5
173 213 3
174 175 1
174 214 4
175 176 2
175 215 2
176 177 4
176 216 3
177 178 5
177 217 2
178 179 2
178 218 2
179 180 3
179 219 5
180 181 3
180 220 4
181 182 3
181 221 3
182 183 5
182 222 3
183 184 4
183 223 5
184 185 3
184 224 1
185 186 3
185 225 2
186 187 1
186 226 5
187 188 4
187 227 1
188 189 5
188 228 1
189 190 3
189 229 2
190 191 5
190 230 1
191 192 2
191 231 4
192 193 2
192 232 3
193 194 1
193 233 5
194 195 5
194 234 5
195 196 4
195 235 3
196 197 1
196 236 4
197 198 3
197 237 2
198 199 1
198 238 5
199 200 5
199 239 2
200 240 2
201 202 1
201 241 4
202 203 4
202 242 4
203 204 2
203 243 4
204 205 2
204 244 4
205 206 3
205 245 3
206 207 2
206 246 2
207 208 5
207 247 3
208 209 3
208 248 5
209 210 4
209 249 1
210 211 5
210 250 2
211 212 1
211 251 1
212 213 5
212 252 3
213 214 1
213 253 5
214 215 4
214 254 5
215 216 5
215 255 2
216 217 1
216 256 4
217 218 5
217 257 5
218 219 3
218 258 3
219 220 4
219 259 4
220 221 1
220 260 4
221 222 1
221 261 5
222 223 1
222 262 4
223 224 2
223 263 1
224 225 1
224 264 4
225 226 2
225 265 3
226 227 5
226 266 4
227 228 3
227 267 5
228 229 1
228 268 1
229 230 5
229 269 5
230 231 4
230 270 2
231 232 3
231 271 2
232 233 4
232 272 3
233 234 2
233 273 2
234 235 3
234 274 5
235 236 5
235 275 2
236 237 5
236 276 5
237 238 2
237 277 2
238 239 5
238 278 1
239 240 2
239 279 2
240 280 2
241 242 1
241 281 3
242 243 2
242 282 5
243 244 2
243 283 2
244 245 4
244 284 1
245 246 1
245 285 2
246 247 1
246 286 5
247 248 5
247 287 3
248 249 2
248 288 3
249 250 2
249 289 1
250 251 1
250 290 2
251 252 4
251 291 5
252 253 5
252 292 4
253 254 5
253 293 3
254 255 3
254 294 5
255 256 5
255 295 4
256 257 5
256 296 5
257 258 1
257 297 1
258 259 3
258 298 3
259 260 3
259 299 4
260 261 1
260 300 4
261 262 2
261 301 2
262 263 1
262 302 5
263 264 2
263 303 3
264 265 2
264 304 2
265 266 3
265 305 3
266 267 2
266 306 5
267 268 5
267 307 2
268 269 5
268 308 2
269 270 4
269 309 2
270 271 1
270 310 5
271 272 1
271 311 4
272 273 1
272 312 2
273 274 4
273 313 1
274 275 1
274 314 5
275 276 5
275 315 2
276 277 5
276 316 4
277 278 3
277 317 5
278 279 4
278 318 1
279 280 4
279 319 4
280 320 3
281 282 1
281 321 1
282 283 1
282 322 3
283 284 3
283 323 2
284 285 3
284 324 1
285 286 4
285 325 5
286 287 2
286 326 2
287 288 4
287 327 5
288 289 2
288 328 2
289 290 3
289 329 2
290 291 5
290 330 2
291 292 4
291 331 4
292 293 3
292 332 5
293 294 5
293 333 2
294 295 5
294 334 4
295 296 4
295 335 5
296 297 5
296 336 2
297 298 2
297 337 4
298 299 2
298 338 3
299 300 1
299 339 1
300 301 1
300 340 4
301 302 4
301 341 5
302 303 3
302 342 4
303 304 2
303 343 2
304 305 2
304 344 5
305 306 3
305 345 4
306 307 1
306 346 5
307 308 2
307 347 1
308 309 3
308 348 3
309 310 4
309 349 5
310 311 1
310 350 5
311 312 5
311 351 4
312 313 5
312 352 3
313 314 2
313 353 3
314 315 3
314 354 5
315 316 1
315 355 1
316 317 3
316 356 2
317 318 3
317 357 1
318 319 2
318 358 2
319 320 3
319 359 3
320 360 5
321 322 2
321 361 2
322 323 1
322 362 3
323 324 1
323 363 4
324 325 2
324 364 4
325 326 3
325 365 5
326 327 3
326 366 1
327 328 1
327 367 1
328 329 5
328 368 5
329 330 3
329 369 4
330 331 3
330 370 1
331 332 2
331 371 1
332 333 3
332 372 1
333 334 3
333 373 2
334 335 5
334 374 1
335 336 3
335 375 3
336 337 3
336 376 2
337 338 5
337 377 5
338 339 3
338 378 2
339 340 4
339 379 5
340 341 3
340 380 2
341 342 2
341 381 1
342 343 2
342 382 3
343 344 1
343 383 5
344 345 3
344 384 3
345 346 4
345 385 4
346 347 2
346 386 5
347 348 1
347 387 5
348 349 4
348 388 3
349 350 2
349 389 2
350 351 1
350 390 4
351 352 2
351 391 5
352 353 5
352 392 3
353 354 3
353 393 1
354 355 1
354 394 4
355 356 2
355 395 4
356 357 4
356 396 2
357 358 1
357 397 3
358 359 4
358 398 3
359 360 3
359 399 2
360 400 3
361 362 4
361 401 4
362 363 2
362 402 5
363 364 2
363 403 4
364 365 2
364 404 5
365 366 1
365 405 5
366 367 4
366 406 3
367 368 3
367 407 1
368 369 5
368 408 3
369 370 4
369 409 2
370 371 2
370 410 1
371 372 5
371 411 3
372 373 3
372 412 5
373 374 2
373 413 5
374 375 1
374 414 5
375 376 4
375 415 1
376 377 1
376 416 3
377 378 1
377 417 4
378 379 2
378 418 2
379 380 1
379 419 3
380 381 1
380 420 1
381 382 2
381 421 4
382 383 3
382 422 1
383 384 2
383 423 1
384 385 1
384 424 5
385 386 2
385 425 2
386 387 3
386 426 2
387 388 1
387 427 3
388 389 4
388 428 1
389 390 3
389 429 4
390 391 2
390 430 2
391 392 2
391 431 4
392 393 2
392 432 5
393 394 2
393 433 2
394 395 4
394 434 3
395 396 2
395 435 5
396 397 5
396 436 1
397 398 3
397 437 1
398 399 3
398 438 3
399 400 5
399 439 5
400 440 4
401 402 4
401 441 4
402 403 3
402 442 1
403 404 3
403 443 2
404 405 1
404 444 3
405 406 4
405 445 1
406 407 1
406 446 5
407 408 2
407 447 2
408 409 2
408 448 2
409 410 3
409 449 1
410 411 4
410 450 3
411 412 2
411 451 2
412 413 5
412 452 2
413 414 1
413 453 3
414 415 1
414 454 5
415 416 1
415 455 4
416 417 1
416 456 2
417 418 2
417 457 4
418 419 1
418 458 2
419 420 5
419 459 5
420 421 4
420 460 2
421 422 5
421 461 3
422 423 5
422 462 3
423 424 4
423 463 1
424 425 4
424 464 2
425 426 2
425 465 2
426 427 3
426 466 2
427 428 3
427 467 3
428 429 4
428 468 2
429 430 5
429 469 3
430 431 3
430 470 2
431 432 2
431 471 3
432 433 4
432 472 4
433 434 3
433 473 2
434 435 1
434 474 5
435 436 5
435 475 1
436 437 2
436 476 4
437 438 2
437 477 2
438 439 1
438 478 4
439 440 3
439 479 2
440 480 2
441 442 1
441 481 4
442 443 3
442 482 3
443 444 3
443 483 4
444 445 2
444 484 5
445 446 4
445 485 4
446 447 5
446 486 2
447 448 2
447 487 5
448 449 5
448 488 3
449 450 4
449 489 3
450 451 3
450 490 5
451 452 1
451 491 3
452 453 2
452 492 2
453 454 3
453 493 5
454 455 1
454 494 1
455 456 2
455 495 3
456 457 1
456 496 1
457 458 1
457 497 4
458 459 1
458 498 3
459 460 2
459 499 1
460 461 5
460 500 4
461 462 1
461 501 2
462 463 5
462 502 5
463 464 3
463 503 4
464 465 4
464 504 5
465 466 1
465 505 5
466 467 1
466 506 1
467 468 4
467 507 1
468 469 5
468 508 3
469 470 2
469 509 2
470 471 5
470 510 4
471 472 5
471 511 4
472 473 2
472 512 4
473 474 2
473 513 2
474 475 1
474 514 4
475 476 2
475 515 4
476 477 3
476 516 4
477 478 5
477 517 3
478 479 4
478 518 4
479 480 2
479 519 1
480 520 5
481 482 4
481 521 1
482 483 2
482 522 2
483 484 3
483 523 1
484 485 5
484 524 3
485 486 5
485 525 4
486 487 3
486 526 1
487 488 4
487 527 2
488 489 5
488 528 1
489 490 4
489 529 1
490 491 5
490 530 3
491 492 1
491 531 2
492 493 2
492 532 5
493 494 4
493 533 2
494 495 5
494 534 5
495 496 1
495 535 1
496 497 2
496 536 5
497 498 4
497 537 2
498 499 5
498 538 5
499 500 4
499 539 3
500 501 3
500 540 4
501 502 3
501 541 2
502 503 4
502 542 5
503 504 3
503 543 2
504 505 4
504 544 1
505 506 4
505 545 1
506 507 2
506 546 1
507 508 4
507 547 2
508 509 4
508 548 4
509 510 4
509 549 3
510 511 1
510 550 4
511 512 3
511 551 2
512 513 4
512 552 5
513 514 3
513 553 1
514 515 4
514 554 3
515 516 4
515 555 2
516 517 1
516 556 1
517 518 2
517 557 3
518 519 1
518 558 2
519 520 5
519 559 4
520 560 2
521 522 1
521 561 3
522 523 2
522 562 5
523 524 1
523 563 3
524 525 1
524 564 4
525 526 1
525 565 3
526 527 3
526 566 2
527 528 3
527 567 3
528 529 1
528 568 1
529 530 1
529 569 2
530 531 5
530 570 1
531 532 1
531 571 5
532 533 5
532 572 1
533 534 1
533 573 5
534 535 5
534 574 2
535 536 4
535 575 3
536 537 5
536 576 3
537 538 3
537 577 2
538 539 4
538 578 5
539 540 5
539 579 5
540 541 2
540 580 3
541 542 3
541 581 5
542 543 1
542 582 1
543 544 4
543 583 4
544 545 5
544 584 1
545 546 3
545 585 5
546 547 2
546 586 3
547 548 2
547 587 4
548 549 1
548 588 5
549 550 5
549 589 4
550 551 4
550 590 1
551 552 1
551 591 3
552 553 2
552 592 2
553 554 5
553 593 1
554 555 5
554 594 4
555 556 5
555 595 3
556 557 2
556 596 1
557 558 1
557 597 5
558 559 3
558 598 4
559 560 4
559 599 4
560 600 1
561 562 3
561 601 2
562 563 3
562 602 1
563 564 2
563 603 4
564 565 4
564 604 1
565 566 2
565 605 1
566 567 3
566 606 3
567 568 4
567 607 3
568 569 5
568 608 1
569 570 4
569 609 4
570 571 5
570 610 3
571 572 1
571 611 2
572 573 5
572 612 1
573 574 4
573 613 2
574 575 1
574 614 3
575 576 2
575 615 3
576 577 3
576 616 1
577 578 4
577 617 5
578 579 3
578 618 2
579 580 5
579 619 2
580 581 2
580 620 4
581 582 3
581 621 4
582 583 2
582 622 5
583 584 1
583 623 4
584 585 5
584 624 3
585 586 5
585 625 5
586 587 1
586 626 4
587 588 3
587 627 3
588 589 4
588 628 3
589 590 5
589 629 4
590 591 4
590 630 4
591 592 2
591 631 5
592 593 2
592 632 2
593 594 4
593 633 3
594 595 3
594 634 2
595 596 3
595 635 5
596 597 2
596 636 3
597 598 4
597 637 4
598 599 5
598 638 4
599 600 1
599 639 2
600 640 3
601 602 3
601 641 2
602 603 5
602 642 4
603 604 5
603 643 5
604 605 4
604 644 5
605 606 2
605 645 1
606 607 3
606 646 1
607 608 5
607 647 3
608 609 1
608 648 4
609 610 5
609 649 4
610 611 4
610 650 1
611 612 1
611 651 3
612 613 2
612 652 4
613 614 5
613 653 3
614 615 5
614 654 3
615 616 2
615 655 2
616 617 1
616 656 5
617 618 4
617 657 2
618 619 2
618 658 1
619 620 1
619 659 3
620 621 3
620 660 5
621 622 2
621 661 5
622 623 1
622 662 4
623 624 5
623 663 1
624 625 1
624 664 5
625 626 1
625 665 4
626 627 3
626 666 5
627 628 1
627 667 1
628 629 1
628 668 1
629 630 2
629 669 3
630 631 3
630 670 3
631 632 1
631 671 1
632 633 5
632 672 3
633 634 3
633 673 1
634 635 4
634 674 5
635 636 3
635 675 1
636 637 2
636 676 3
637 638 3
637 677 1
638 639 2
638 678 3
639 640 3
639 679 1
640 680 5
641 642 4
641 681 2
642 643 4
642 682 2
643 644 1
643 683 1
644 645 3
644 684 4
645 646 3
645 685 1
646 647 5
646 686 5
647 648 1
647 687 2
648 649 2
648 688 3
649 650 1
649 689 5
650 651 1
650 690 2
651 652 4
651 691 2
652 653 4
652 692 1
653 654 2
653 693 1
654 655 5
654 694 4
655 656 2
655 695 5
656 657 1
656 696 5
657 658 4
657 697 4
658 659 1
658 698 4
659 660 5
659 699 2
660 661 4
660 700 5
661 662 3
661 701 3
662 663 2
662 702 5
663 664 3
663 703 1
664 665 5
664 704 4
665 666 5
665 705 2
666 667 4
666 706 4
667 668 5
667 707 1
668 669 2
668 708 1
669 670 4
669 709 2
670 671 5
670 710 4
671 672 2
671 711 5
672 673 5
672 712 4
673 674 1
673 713 3
674 675 5
674 714 5
675 676 3
675 715 4
676 677 5
676 716 4
677 678 5
677 717 2
678 679 4
678 718 4
679 680 4
679 719 1
680 720 2
681 682 1
681 721 2
682 683 1
682 722 2
683 684 3
683 723 1
684 685 5
684 724 1
685 686 2
685 725 4
686 687 1
686 726 4
687 688 2
687 727 3
688 689 1
688 728 2
689 690 3
689 729 5
690 691 3
690 730 3
691 692 2
691 731 3
692 693 3
692 732 2
693 694 3
693 733 5
694 695 1
694 734 1
695 696 4
695 735 3
696 697 1
696 736 4
697 698 1
697 737 3
698 699 3
698 738 2
699 700 5
699 739 1
700 701 4
700 740 3
701 702 1
701 741 1
702 703 3
702 742 3
703 704 4
703 743 2
704 705 3
704 744 1
705 706 3
705 745 2
706 707 5
706 746 4
707 708 5
707 747 5
708 709 4
708 748 3
709 710 1
709 749 2
710 711 5
710 750 3
711 712 2
711 751 5
712 713 1
712 752 5
713 714 3
713 753 2
714 715 5
714 754 2
715 716 5
715 755 2
716 717 4
716 756 4
717 718 2
717 757 2
718 719 5
718 758 2
719 720 4
719 759 1
720 760 4
721 722 5
721 761 4
722 723 3
722 762 3
723 724 4
723 763 3
724 725 2
724 764 2
725 726 2
725 765 4
726 727 3
726 766 4
727 728 3
727 767 4
728 729 1
728 768 1
729 730 3
729 769 5
730 731 2
730 770 2
731 732 4
731 771 5
732 733 2
732 772 3
733 734 4
733 773 5
734 735 2
734 774 4
735 736 4
735 775 5
736 737 1
736 776 1
737 738 1
737 777 4
738 739 1
738 778 1
739 740 1
739 779 5
740 741 3
740 780 5
741 742 1
741 781 3
742 743 1
742 782 4
743 744 2
743 783 2
744 745 5
744 784 1
745 746 3
745 785 5
746 747 1
746 786 4
747 748 5
747 787 4
748 749 5
748 788 2
749 750 4
749 789 4
750 751 4
750 790 3
751 752 5
751 791 1
752 753 4
752 792 1
753 754 4
753 793 3
754 755 5
754 794 1
755 756 1
755 795 2
756 757 1
756 796 3
757 758 3
757 797 1
758 759 5
758 798 4
759 760 3
759 799 1
760 800 5
761 762 4
761 801 3
762 763 4
762 802 1
763 764 3
763 803 4
764 765 4
764 804 4
765 766 3
765 805 1
766 767 4
766 806 4
767 768 2
767 807 2
768 769 5
768 808 5
769 770 3
769 809 3
770 771 4
770 810 3
771 772 1
771 811 4
772 773 5
772 812 2
773 774 2
773 813 3
774 775 5
774 814 1
775 776 4
775 815 2
776 777 1
776 816 2
777 778 1
777 817 3
778 779 4
778 818 1
779 780 1
779 819 1
780 781 3
780 820 5
781 782 3
781 821 4
782 783 5
782 822 4
783 784 2
783 823 1
784 785 4
784 824 2
785 786 4
785 825 1
786 787 3
786 826 5
787 788 2
787 827 3
788 789 5
788 828 5
789 790 3
789 829 4
790 791 3
790 830 2
791 792 3
791 831 3
792 793 3
792 832 3
793 794 4
793 833 5
794 795 2
794 834 4
795 796 2
795 835 3
796 797 1
796 836 2
797 798 1
797 837 2
798 799 4
798 838 5
799 800 3
799 839 5
800 840 3
801 802 5
801 841 5
802 803 2
802 842 3
803 804 4
803 843 3
804 805 2
804 844 2
805 806 1
805 845 2
806 807 3
806 846 1
807 808 5
807 847 1
808 809 2
808 848 2
809 810 1
809 849 2
810 811 3
810 850 2
811 812 4
811 851 3
812 813 5
812 852 4
813 814 1
813 853 1
814 815 2
814 854 3
815 816 5
815 855 3
816 817 2
816 856 3
817 818 4
817 857 3
818 819 1
818 858 4
819 820 3
819 859 2
820 821 5
820 860 1
821 822 3
821 861 2
822 823 4
822 862 5
823 824 5
823 863 3
824 825 2
824 864 4
825 826 2
825 865 3
826 827 2
826 866 5
827 828 5
827 867 3
828 829 4
828 868 3
829 830 5
829 869 1
830 831 2
830 870 2
831 832 5
831 871 4
832 833 3
832 872 5
833 834 3
833 873 1
834 835 1
834 874 3
835 836 2
835 875 3
836 837 5
836 876 1
837 838 1
837 877 5
838 839 2
838 878 4
839 840 1
839 879 2
840 880 5
841 842 5
841 881 5
842 843 4
842 882 3
843 844 1
843 883 2
844 845 4
844 884 4
845 846 3
845 885 4
846 847 4
846 886 4
847 848 3
847 887 5
848 849 5
848 888 4
849 850 4
849 889 3
850 851 1
850 890 2
851 852 5
851 891 1
852 853 1
852 892 2
853 854 5
853 893 3
854 855 4
854 894 5
855 856 3
855 895 2
856 857 3
856 896 2
857 858 3
857 897 5
858 859 3
858 898 1
859 860 1
859 899 2
860 861 3
860 900 2
861 862 5
861 901 5
862 863 1
862 902 3
863 864 4
863 903 3
864 865 2
864 904 5
865 866 2
865 905 3
866 867 3
866 906 4
867 868 5
867 907 2
868 869 5
868 908 4
869 870 1
869 909 4
870 871 2
870 910 3
871 872 1
871 911 2
872 873 5
872 912 2
873 874 4
873 913 3
874 875 2
874 914 3
875 876 2
875 915 3
876 877 2
876 916 2
877 878 5
877 917 2
878 879 1
878 918 2
879 880 4
879 919 5
880 920 4
881 882 4
881 921 3
882 883 3
882 922 2
883 884 4
883 923 5
884 885 1
884 924 1
885 886 2
885 925 1
886 887 4
886 926 3
887 888 3
887 927 2
888 889 5
888 928 2
889 890 4
889 929 2
890 891 2
890 930 3
891 892 4
891 931 2
892 893 5
892 932 1
893 894 2
893 933 4
894 895 3
894 934 4
895 896 2
895 935 5
896 897 3
896 936 4
897 898 1
897 937 3
898 899 5
898 938 3
899 900 4
899 939 4
900 901 1
900 940 1
901 902 1
901 941 2
902 903 4
902 942 1
903 904 5
903 943 1
904 905 4
904 944 3
905 906 5
905 945 4
906 907 3
906 946 4
907 908 1
907 947 2
908 909 5
908 948 5
909 910 3
909 949 3
910 911 5
910 950 1
911 912 5
911 951 3
912 913 2
912 952 2
913 914 3
913 953 4
914 915 5
914 954 1
915 916 1
915 955 4
916 917 5
916 956 2
917 918 3
917 957 1
918 919 4
918 958 3
919 920 5
919 959 2
920 960 5
921 922 5
921 961 4
922 923 4
922 962 5
923 924 3
923 963 5
924 925 4
924 964 5
925 926 4
925 965 3
926 927 4
926 966 5
927 928 5
927 967 1
928 929 4
928 968 4
929 930 5
929 969 1
930 931 5
930 970 1
931 932 2
931 971 1
932 933 5
932 972 2
933 934 2
933 973 1
934 935 5
934 974 4
935 936 2
935 975 1
936 937 5
936 976 1
937 938 5
937 977 5
938 939 2
938 978 1
939 940 5
939 979 1
940 941 3
940 980 3
941 942 1
941 981 2
942 943 4
942 982 4
943 944 4
943 983 5
944 945 5
944 984 1
945 946 3
945 985 4
946 947 2
946 986 4
947 948 3
947 987 1
948 949 5
948 988 1
949 950 5
949 989 3
950 951 2
950 990 2
951 952 5
951 991 3
952 953 2
952 992 5
953 954 4
953 993 5
954 955 2
954 994 3
955 956 4
955 995 4
956 957 3
956 996 4
957 958 5
957 997 1
958 959 5
958 998 1
959 960 4
959 999 5
960 1000 2
961 962 2
961 1001 3
962 963 3
962 1002 5
963 964 1
963 1003 1
964 965 5
964 1004 5
965 966 4
965 1005 5
966 967 3
966 1006 2
967 968 5
967 1007 5
968 969 5
968 1008 5
969 970 5
969 1009 2
970 971 1
970 1010 3
971 972 5
971 1011 3
972 973 1
972 1012 3
973 974 2
973 1013 4
974 975 1
974 1014 3
975 976 3
975 1015 1
976 977 1
976 1016 3
977 978 5
977 1017 2
978 979 3
978 1018 3
979 980 1
979 1019 3
980 981 5
980 1020 3
981 982 4
981 1021 2
982 983 2
982 1022 4
983 984 5
983 1023 3
984 985 1
984 1024 4
985 986 4
985 1025 3
986 987 3
986 1026 1
987 988 1
987 1027 1
988 989 4
988 1028 2
989 990 1
989 1029 3
990 991 5
990 1030 1
991 992 5
991 1031 3
992 993 3
992 1032 4
993 994 4
993 1033 1
994 995 1
994 1034 3
995 996 4
995 1035 3
996 997 5
996 1036 1
997 998 5
997 1037 2
998 999 5
998 1038 1
999 1000 4
999 1039 5
1000 1040 4
1001 1002 5
1001 1041 3
1002 1003 5
1002 1042 1
1003 1004 3
1003 1043 2
1004 1005 4
1004 1044 5
1005 1006 1
1005 1045 2
1006 1007 5
1006 1046 3
1007 1008 4
1007 1047 1
1008 1009 4
1008 1048 3
1009 1010 1
1009 1049 1
1010 1011 3
1010 1050 4
1011 1012 5
1011 1051 5
1012 1013 1
1012 1052 3
1013 1014 5
1013 1053 5
1014 1015 1
1014 1054 3
1015 1016 1
1015 1055 3
1016 1017 2
1016 1056 4
1017 1018 5
1017 1057 1
1018 1019 3
1018 1058 3
1019 1020 4
1019 1059 4
1020 1021 4
1020 1060 4
1021 1022 2
1021 1061 2
1022 1023 5
1022 1062 1
1023 1024 2
1023 1063 3
1024 1025 1
1024 1064 5
1025 1026 2
1025 1065 4
1026 1027 3
1026 1066 1
1027 1028 1
1027 1067 5
1028 1029 1
1028 1068 4
1029 1030 5
1029 1069 2
1030 1031 5
1030 1070 3
1031 1032 5
1031 1071 2
1032 1033 3
1032 1072 5
1033 1034 2
1033 1073 3
1034 1035 5
1034 1074 3
1035 1036 3
1035 1075 4
1036 1037 1
1036 1076 5
1037 1038 2
1037 1077 3
1038 1039 2
1038 1078 4
1039 1040 2
1039 1079 2
1040 1080 3
1041 1042 1
1041 1081 5
1042 1043 4
1042 1082 5
1043 1044 2
1043 1083 1
1044 1045 1
1044 1084 4
1045 1046 3
1045 1085 1
1046 1047 4
1046 1086 1
1047 1048 3
1047 1087 1
1048 1049 3
1048 1088 4
1049 1050 4
1049 1089 1
1050 1051 1
1050 1090 4
1051 1052 1
1051 1091 2
1052 1053 4
1052 1092 4
1053 1054 3
1053 1093 1
1054 1055 1
1054 1094 1
1055 1056 2
1055 1095 2
1056 1057 2
1056 1096 5
1057 1058 3
1057 1097 3
1058 1059 2
1058 1098 5
1059 1060 1
1059 1099 5
1060 1061 2
1060 1100 2
1061 1062 2
1061 1101 4
1062 1063 1
1062 1102 1
1063 1064 5
1063 1103 3
1064 1065 3
1064 1104 1
1065 1066 1
1065 1105 1
1066 1067 1
1066 1106 2
1067 1068 3
1067 1107 5
1068 1069 1
1068 1108 3
1069 1070 4
1069 1109 1
1070 1071 2
1070 1110 1
1071 1072 1
1071 1111 4
1072 1073 3
1072 1112 3
1073 1074 5
1073 1113 3
1074 1075 3
1074 1114 2
1075 1076 5
1075 1115 3
1076 1077 1
1076 1116 3
1077 1078 5
1077 1117 4
1078 1079 4
1078 1118 1
1079 1080 5
1079 1119 3
1080 1120 3
1081 1082 5
1081 1121 2
1082 1083 2
1082 1122 5
1083 1084 2
1083 1123 3
1084 1085 5
1084 1124 5
1085 1086 2
1085 1125 3
1086 1087 2
1086 1126 3
1087 1088 1
1087 1127 1
1088 1089 3
1088 1128 2
1089 1090 4
1089 1129 5
1090 1091 2
1090 1130 5
1091 1092 1
1091 1131 1
1092 1093 2
1092 1132 2
1093 1094 5
1093 1133 3
1094 1095 3
1094 1134 2
1095 1096 5
1095 1135 3
1096 1097 2
1096 1136 2
1097 1098 3
1097 1137 3
1098 1099 3
1098 1138 2
1099 1100 2
1099 1139 4
1100 1101 5
1100 1140 4
1101 1102 2
1101 1141 1
1102 1103 5
1102 1142 4
1103 1104 3
1103 1143 5
1104 1105 5
1104 1144 5
1105 1106 3
1105 1145 2
1106 1107 1
1106 1146 4
1107 1108 5
1107 1147 3
1108 1109 3
1108 1148 3
1109 1110 2
1109 1149 1
1110 1111 1
1110 1150 5
1111 1112 5
1111 1151 3
1112 1113 1
1112 1152 1
1113 1114 2
1113 1153 5
1114 1115 1
1114 1154 1
1115 1116 3
1115 1155 5
1116 1117 4
1116 1156 1
1117 1118 5
1117 1157 4
1118 1119 2
1118 1158 3
1119 1120 3
1119 1159 4
1120 1160 3
1121 1122 1
1121 1161 1
1122 1123 5
1122 1162 1
1123 1124 5
1123 1163 4
1124 1125 1
1124 1164 4
1125 1126 2
1125 1165 5
1126 1127 4
1126 1166 3
1127 1128 5
1127 1167 5
1128 1129 2
1128 1168 3
1129 1130 2
1129 1169 4
1130 1131 2
1130 1170 2
1131 1132 1
1131 1171 2
1132 1133 2
1132 1172 5
1133 1134 4
1133 1173 1
1134 1135 3
1134 1174 4
1135 1136 2
1135 1175 5
1136 1137 5
1136 1176 2
1137 1138 4
1137 1177 5
1138 1139 4
1138 1178 2
1139 1140 5
1139 1179 5
1140 1141 2
1140 1180 1
1141 1142 1
1141 1181 3
1142 1143 5
1142 1182 3
1143 1144 3
1143 1183 2
1144 1145 4
1144 1184 5
1145 1146 2
1145 1185 1
1146 1147 4
1146 1186 1
1147 1148 2
1147 1187 5
1148 1149 4
1148 1188 5
1149 1150 3
1149 1189 3
1150 1151 3
1150 1190 4
1151 1152 1
1151 1191 5
1152 1153 2
1152 1192 1
1153 1154 3
1153 1193 3
1154 1155 4
1154 1194 4
1155 1156 5
1155 1195 2
1156 1157 1
1156 1196 3
1157 1158 2
1157 1197 1
1158 1159 3
1158 1198 5
1159 1160 4
1159 1199 5
1160 1200 3
1161 1162 2
1161 1201 4
1162 1163 1
1162 1202 1
1163 1164 3
1163 1203 3
1164 1165 2
1164 1204 2
1165 1166 2
1165 1205 2
1166 1167 1
1166 1206 3
1167 1168 1
1167 1207 1
1168 1169 3
1168 1208 3
1169 1170 3
1169 1209 5
1170 1171 5
1170 1210 4
1171 1172 4
1171 1211 5
1172 1173 3
1172 1212 1
1173 1174 5
1173 1213 4
1174 1175 2
1174 1214 2
1175 1176 4
1175 1215 1
1176 1177 3
1176 1216 4
1177 1178 3
1177 1217 4
1178 1179 5
1178 1218 5
1179 1180 5
1179 1219 3
1180 1181 2
1180 1220 2
1181 1182 4
1181 1221 5
1182 1183 2
1182 1222 4
1183 1184 4
1183 1223 5
1184 1185 4
1184 1224 4
1185 1186 3
1185 1225 1
1186 1187 3
1186 1226 3
1187 1188 3
1187 1227 5
1188 1189 2
1188 1228 1
1189 1190 3
1189 1229 5
1190 1191 3
1190 1230 4
1191 1192 3
1191 1231 1
1192 1193 2
1192 1232 5
1193 1194 3
1193 1233 1
1194 1195 4
1194 1234 3
1195 1196 4
1195 1235 5
1196 1197 4
1196 1236 5
1197 1198 1
1197 1237 5
1198 1199 5
1198 1238 1
1199 1200 4
1199 1239 4
1200 1240 3
1201 1202 4
1201 1241 5
1202 1203 2
1202 1242 4
1203 1204 1
1203 1243 3
1204 1205 1
1204 1244 5
1205 1206 5
1205 1245 2
1206 1207 1
1206 1246 3
1207 1208 1
1207 1247 3
1208 1209 1
1208 1248 5
1209 1210 5
1209 1249 3
1210 1211 5
1210 1250 1
1211 1212 1
1211 1251 2
1212 1213 5
1212 1252 5
1213 1214 2
1213 1253 1
1214 1215 1
1214 1254 2
1215 1216 3
1215 1255 2
1216 1217 1
1216 1256 3
1217 1218 5
1217 1257 3
1218 1219 4
1218 1258 4
1219 1220 1
1219 1259 1
1220 1221 2
1220 1260 5
1221 1222 2
1221 1261 2
1222 1223 1
1222 1262 2
1223 1224 2
1223 1263 3
1224 1225 3
1224 1264 1
1225 1226 5
1225 1265 4
1226 1227 3
1226 1266 1
1227 1228 4
1227 1267 1
1228 1229 4
1228 1268 4
1229 1230 1
1229 1269 2
1230 1231 3
1230 1270 3
1231 1232 4
1231 1271 2
1232 1233 5
1232 1272 4
1233 1234 5
1233 1273 5
1234 1235 2
1234 1274 5
1235 1236 5
1235 1275 2
1236 1237 2
1236 1276 5
1237 1238 4
1237 1277 1
1238 1239 5
1238 1278 3
1239 1240 4
1239 1279 1
1240 1280 5
1241 1242 4
1241 1281 2
1242 1243 1
1242 1282 3
1243 1244 4
1243 1283 4
1244 1245 2
1244 1284 5
1245 1246 1
1245 1285 2
1246 1247 3
1246 1286 4
1247 1248 1
1247 1287 4
1248 1249 3
1248 1288 3
1249 1250 3
1249 1289 3
1250 1251 3
1250 1290 1
1251 1252 1
1251 1291 1
1252 1253 5
1252 1292 2
1253 1254 1
1253 1293 4
1254 1255 1
1254 1294 3
1255 1256 3
1255 1295 3
1256 1257 3
1256 1296 3
1257 1258 3
1257 1297 1
1258 1259 2
1258 1298 2
1259 1260 1
1259 1299 3
1260 1261 2
1260 1300 5
1261 1262 1
1261 1301 5
1262 1263 2
1262 1302 4
1263 1264 2
1263 1303 5
1264 1265 1
1264 1304 1
1265 1266 2
1265 1305 1
1266 1267 3
1266 1306 1
1267 1268 5
1267 1307 5
1268 1269 5
1268 1308 2
1269 1270 5
1269 1309 3
1270 1271 3
1270 1310 1
1271 1272 2
1271 1311 3
1272 1273 2
1272 1312 4
1273 1274 2
1273 1313 5
1274 1275 5
1274 1314 1
1275 1276 1
1275 1315 1
1276 1277 2
1276 1316 5
1277 1278 2
1277 1317 5
1278 1279 4
1278 1318 4
1279 1280 4
1279 1319 3
1280 1320 4
1281 1282 1
1281 1321 4
1282 1283 5
1282 1322 4
1283 1284 3
1283 1323 3
1284 1285 1
1284 1324 5
1285 1286 5
1285 1325 4
1286 1287 4
1286 1326 2
1287 1288 3
1287 1327 4
1288 1289 2
1288 1328 4
1289 1290 1
1289 1329 5
1290 1291 4
1290 1330 3
1291 1292 3
1291 1331 3
1292 1293 3
1292 1332 3
1293 1294 4
1293 1333 4
1294 1295 2
1294 1334 2
1295 1296 1
1295 1335 5
1296 1297 4
1296 1336 4
1297 1298 5
1297 1337 2
1298 1299 4
1298 1338 3
1299 1300 1
1299 1339 5
1300 1301 1
1300 1340 2
1301 1302 3
1301 1341 3
1302 1303 4
1302 1342 4
1303 1304 3
1303 1343 5
1304 1305 5
1304 1344 5
1305 1306 2
1305 1345 4
1306 1307 1
1306 1346 1
1307 1308 5
1307 1347 2
1308 1309 2
1308 1348 4
1309 1310 4
1309 1349 5
1310 1311 5
1310 1350 3
1311 1312 1
1311 1351 1
1312 1313 1
1312 1352 2
1313 1314 5
1313 1353 5
1314 1315 5
1314 1354 1
1315 1316 3
1315 1355 5
1316 1317 4
1316 1356 3
1317 1318 5
1317 1357 5
1318 1319 5
1318 1358 2
1319 1320 1
1319 1359 3
1320 1360 4
1321 1322 3
1321 1361 5
1322 1323 2
1322 1362 2
1323 1324 2
1323 1363 3
1324 1325 1
1324 1364 5
1325 1326 4
1325 1365 2
1326 1327 4
1326 1366 2
1327 1328 1
1327 1367 2
1328 1329 3
1328 1368 4
1329 1330 2
1329 1369 4
1330 1331 2
1330 1370 1
1331 1332 2
1331 1371 1
1332 1333 3
1332 1372 3
1333 1334 1
1333 1373 3
1334 1335 5
1334 1374 5
1335 1336 3
1335 1375 4
1336 1337 3
1336 1376 2
1337 1338 1
1337 1377 2
1338 1339 4
1338 1378 5
1339 1340 5
1339 1379 5
1340 1341 2
1340 1380 4
1341 1342 3
1341 1381 3
1342 1343 5
1342 1382 3
1343 1344 3
1343 1383 1
1344 1345 4
1344 1384 2
1345 1346 5
1345 1385 3
1346 1347 4
1346 1386 1
1347 1348 1
1347 1387 5
1348 1349 5
1348 1388 2
1349 1350 4
1349 1389 4
1350 1351 5
1350 1390 2
1351 1352 2
1351 1391 4
1352 1353 4
1352 1392 1
1353 1354 2
1353 1393 4
1354 1355 1
1354 1394 5
1355 1356 5
1355 1395 2
1356 1357 2
1356 1396 1
1357 1358 5
1357 1397 2
1358 1359 3
1358 1398 1
1359 1360 4
1359 1399 2
1360 1400 4
1361 1362 5
1361 1401 5
1362 1363 4
1362 1402 4
1363 1364 4
1363 1403 1
1364 1365 2
1364 1404 4
1365 1366 3
1365 1405 1
1366 1367 2
1366 1406 4
1367 1368 5
1367 1407 1
1368 1369 5
1368 1408 4
1369 1370 3
1369 1409 2
1370 1371 1
1370 1410 4
1371 1372 3
1371 1411 3
1372 1373 4
1372 1412 5
1373 1374 2
1373 1413 5
1374 1375 2
1374 1414 5
1375 1376 3
1375 1415 3
1376 1377 3
1376 1416 1
1377 1378 5
1377 1417 1
1378 1379 2
1378 1418 4
1379 1380 1
1379 1419 5
1380 1381 2
1380 1420 5
1381 1382 3
1381 1421 1
1382 1383 1
1382 1422 5
1383 1384 1
1383 1423 4
1384 1385 1
1384 1424 1
1385 1386 4
1385 1425 2
1386 1387 5
1386 1426 1
1387 1388 1
1387 1427 5
1388 1389 5
1388 1428 2
1389 1390 2
1389 1429 3
1390 1391 2
1390 1430 2
1391 1392 5
1391 1431 3
1392 1393 2
1392 1432 1
1393 1394 1
1393 1433 4
1394 1395 5
1394 1434 1
1395 1396 1
1395 1435 3
1396 1397 2
1396 1436 4
1397 1398 5
1397 1437 2
1398 1399 2
1398 1438 3
1399 1400 2
1399 1439 4
1400 1440 3
1401 1402 4
1401 1441 5
1402 1403 2
1402 1442 4
1403 1404 1
1403 1443 4
1404 1405 5
1404 1444 3
1405 1406 4
1405 1445 3
1406 1407 1
1406 1446 3
1407 1408 1
1407 1447 3
1408 1409 5
1408 1448 3
1409 1410 5
1409 1449 1
1410 1411 3
1410 1450 2
1411 1412 2
1411 1451 4
1412 1413 3
1412 1452 2
1413 1414 3
1413 1453 2
1414 1415 3
1414 1454 1
1415 1416 1
1415 1455 3
1416 1417 3
1416 1456 2
1417 1418 4
1417 1457 4
1418 1419 4
1418 1458 4
1419 1420 2
1419 1459 4
1420 1421 3
1420 1460 2
1421 1422 5
1421 1461 2
1422 1423 5
1422 1462 1
1423 1424 5
1423 1463 5
1424 1425 1
1424 1464 1
1425 1426 4
1425 1465 3
1426 1427 3
1426 1466 3
1427 1428 3
1427 1467 1
1428 1429 2
1428 1468 5
1429 1430 5
1429 1469 1
1430 1431 5
1430 1470 5
1431 1432 2
1431 1471 2
1432 1433 2
1432 1472 2
1433 1434 3
1433 1473 1
1434 1435 5
1434 1474 5
1435 1436 1
1435 1475 2
1436 1437 3
1436 1476 5
1437 1438 2
1437 1477 2
1438 1439 3
1438 1478 2
1439 1440 1
1439 1479 4
1440 1480 2
1441 1442 5
1441 1481 3
1442 1443 2
1442 1482 3
1443 1444 1
1443 1483 2
1444 1445 3
1444 1484 1
1445 1446 2
1445 1485 3
1446 1447 1
1446 1486 2
1447 1448 3
1447 1487 2
1448 1449 2
1448 1488 4
1449 1450 2
1449 1489 1
1450 1451 3
1450 1490 1
1451 1452 2
1451 1491 1
1452 1453 5
1452 1492 2
1453 1454 3
1453 1493 3
1454 1455 4
1454 1494 3
1455 1456 1
1455 1495 3
1456 1457 3
1456 1496 5
1457 1458 3
1457 1497 3
1458 1459 3
1458 1498 4
1459 1460 2
1459 1499 4
1460 1461 5
1460 1500 2
1461 1462 2
1461 1501 1
1462 1463 2
1462 1502 1
1463 1464 1
1463 1503 4
1464 1465 3
1464 1504 5
1465 1466 4
1465 1505 3
1466 1467 3
1466 1506 3
1467 1468 1
1467 1507 3
1468 1469 1
1468 1508 4
1469 1470 1
1469 1509 4
1470 1471 2
1470 1510 4
1471 1472 4
1471 1511 3
1472 1473 3
1472 1512 1
1473 1474 3
1473 1513 5
1474 1475 2
1474 1514 5
1475 1476 3
1475 1515 2
1476 1477 2
1476 1516 4
1477 1478 2
1477 1517 2
1478 1479 5
1478 1518 1
1479 1480 2
1479 1519 5
1480 1520 1
1481 1482 5
1481 1521 4
1482 1483 2
1482 1522 1
1483 1484 3
1483 1523 1
1484 1485 5
1484 1524 1
1485 1486 4
1485 1525 1
1486 1487 5
1486 1526 4
1487 1488 1
1487 1527 4
1488 1489 3
1488 1528 4
1489 1490 5
1489 1529 2
1490 1491 1
1490 1530 1
1491 1492 2
1491 1531 5
1492 1493 3
1492 1532 3
1493 1494 3
1493 1533 2
1494 1495 3
1494 1534 5
1495 1496 1
1495 1535 5
1496 1497 3
1496 1536 1
1497 1498 5
1497 1537 4
1498 1499 1
1498 1538 2
1499 1500 3
1499 1539 2
1500 1501 5
1500 1540 1
1501 1502 1
1501 1541 5
1502 1503 2
1502 1542 4
1503 1504 4
1503 1543 2
1504 1505 4
1504 1544 3
1505 1506 5
1505 1545 4
1506 1507 3
1506 1546 4
1507 1508 2
1507 1547 2
1508 1509 3
1508 1548 4
1509 1510 4
1509 1549 5
1510 1511 2
1510 1550 3
1511 1512 1
1511 1551 4
1512 1513 2
1512 1552 4
1513 1514 4
1513 1553 2
1514 1515 2
1514 1554 1
1515 1516 2
1515 1555 3
1516 1517 3
1516 1556 5
1517 1518 3
1517 1557 4
1518 1519 4
1518 1558 2
1519 1520 2
1519 1559 4
1520 1560 3
1521 1522 5
1521 1561 1
1522 1523 1
1522 1562 1
1523 1524 5
1523 1563 4
1524 1525 5
1524 1564 2
1525 1526 1
1525 1565 5
1526 1527 5
1526 1566 4
1527 1528 2
1527 1567 1
1528 1529 1
1528 1568 5
1529 1530 2
1529 1569 1
1530 1531 4
1530 1570 2
1531 1532 1
1531 1571 5
1532 1533 4
1532 1572 3
1533 1534 5
1533 1573 5
1534 1535 1
1534 1574 4
1535 1536 5
1535 1575 5
1536 1537 5
1536 1576 3
1537 1538 1
1537 1577 4
1538 1539 5
1538 1578 2
1539 1540 2
1539 1579 5
1540 1541 5
1540 1580 1
1541 1542 2
1541 1581 3
1542 1543 4
1542 1582 5
1543 1544 5
1543 1583 1
1544 1545 2
1544 1584 2
1545 1546 5
1545 1585 2
1546 1547 5
1546 1586 5
1547 1548 5
1547 1587 1
1548 1549 2
1548 1588 1
1549 1550 3
1549 1589 5
1550 1551 2
1550 1590 4
1551 1552 4
1551 1591 5
1552 1553 5
1552 1592 2
1553 1554 1
1553 1593 2
1554 1555 3
1554 1594 5
1555 1556 3
1555 1595 4
1556 1557 1
1556 1596 5
1557 1558 3
1557 1597 2
1558 1559 2
1558 1598 5
1559 1560 5
1559 1599 1
1560 1600 3
1561 1562 3
1562 1563 4
1563 1564 5
1564 1565 2
1565 1566 5
1566 1567 2
1567 1568 2
1568 1569 5
1569 1570 5
1570 1571 4
1571 1572 1
1572 1573 3
1573 1574 5
1574 1575 4
1575 1576 2
1576 1577 3
1577 1578 3
1578 1579 4
1579 1580 5
1580 1581 2
1581 1582 1
1582 1583 3
1583 1584 2
1584 1585 1
1585 1586 3
1586 1587 5
1587 1588 1
1588 1589 2
1589 1590 4
1590 1591 3
1591 1592 1
1592 1593 2
1593 1594 5
1594 1595 1
1595 1596 2
1596 1597 1
1597 1598 1
1598 1599 2
1599 1600 5
